% Logging successfully configured
%%%mzn-stat: initTime=0.006842272
%%%mzn-stat: objective=809
%%%mzn-stat: nodes=311
%%%mzn-stat: restarts=0
%%%mzn-stat: peakDepth=305
%%%mzn-stat: solveTime=0.003706345
%%%mzn-stat: variables=673
%%%mzn-stat: propagators=454
%%%mzn-stat: failures=2
%%%mzn-stat: propagations=1638
%%%mzn-stat: nogoods=2
%%%mzn-stat: numAtomicConstraintsPropagated=0
%%%mzn-stat: allDifferentNumber1PropagationsTotal=70
%%%mzn-stat: allDifferentNumber1PropagationsThatFoundConflict=0
%%%mzn-stat: allDifferentNumber1PropagationsThatPruned=37
%%%mzn-stat: allDifferentNumber1TotalValuesPruned=217
%%%mzn-stat: allDifferentNumber1TotalHallSetSizeConflict=0
%%%mzn-stat: allDifferentNumber1NumberOfConflicts=0
%%%mzn-stat: allDifferentNumber1MaxHallSetSizeConflict=0
%%%mzn-stat: allDifferentNumber1TotalPruningHallSetSize=1173
%%%mzn-stat: allDifferentNumber1NumberOfPruningExplanations=217
%%%mzn-stat: allDifferentNumber1MaxPruningHallSetSize=27
%%%mzn-stat: allDifferentNumber1TotalFixedEdgesAtConflict=0
%%%mzn-stat: allDifferentNumber1TotalVarsInvolvedInPruning=159
%%%mzn-stat: allDifferentNumber1MaxValuesPrunedFromSingleVar=7
%%%mzn-stat: allDifferentNumber1TotalSccSizeAtPruning=235
%%%mzn-stat: allDifferentNumber1NumberOfSccPruningCalls=37
%%%mzn-stat: circuitNumber2PropagationsThatFoundConflict=2
%%%mzn-stat: circuitNumber2TotalFixedEdgesAtConflict=68
%%%mzn-stat: circuitNumber2NumberOfConflicts=2
%%%mzn-stat: circuitNumber2PropagationsThatPruned=3
%%%mzn-stat: circuitNumber2PropagationsTotal=38
%%%mzn-stat: AverageConflictSize=3
%%%mzn-stat: NumUnitNogoodsLearned=0
%%%mzn-stat: AverageLearnedNogoodLength=16.5
%%%mzn-stat: AverageBacktrackAmount=0
%%%mzn-stat: AverageLbd=6
%%%mzn-stat: 2AutonomousSearchNumBackupCalled=279
%%%mzn-stat: 2AutonomousSearchNumPredicatesRemoved=0
%%%mzn-stat: 2AutonomousSearchNumCalls=280
%%%mzn-stat: 2AutonomousSearchNumPredicatesAdded=136
%%%mzn-stat: 2AutonomousSearchAverageSizeOfHeap=0.4857142857142857
%%%mzn-stat: 2AutonomousSearchNumAssignedPredicatesEncountered=136
%%%mzn-stat-end
maxleg = 809;
succ = array1d(1..50,[19, 9, 6, 5, 18, 8, 14, 7, 4, 15, 26, 2, 23, 49, 24, 34, 20, 25, 12, 21, 33, 29, 48, 45, 44, 35, 1, 10, 42, 11, 3, 17, 36, 22, 37, 28, 27, 32, 41, 38, 46, 13, 40, 39, 30, 16, 50, 47, 43, 31]);
% time elapsed: 3.31 s
----------
%%%mzn-stat: initTime=0.006842272
%%%mzn-stat: objective=685
%%%mzn-stat: nodes=714
%%%mzn-stat: restarts=0
%%%mzn-stat: peakDepth=321
%%%mzn-stat: solveTime=0.029996411
%%%mzn-stat: variables=673
%%%mzn-stat: propagators=454
%%%mzn-stat: failures=45
%%%mzn-stat: propagations=3985
%%%mzn-stat: nogoods=45
%%%mzn-stat: numAtomicConstraintsPropagated=0
%%%mzn-stat: allDifferentNumber1PropagationsTotal=366
%%%mzn-stat: allDifferentNumber1PropagationsThatFoundConflict=0
%%%mzn-stat: allDifferentNumber1PropagationsThatPruned=200
%%%mzn-stat: allDifferentNumber1TotalValuesPruned=770
%%%mzn-stat: allDifferentNumber1TotalHallSetSizeConflict=0
%%%mzn-stat: allDifferentNumber1NumberOfConflicts=0
%%%mzn-stat: allDifferentNumber1MaxHallSetSizeConflict=0
%%%mzn-stat: allDifferentNumber1TotalPruningHallSetSize=2740
%%%mzn-stat: allDifferentNumber1NumberOfPruningExplanations=770
%%%mzn-stat: allDifferentNumber1MaxPruningHallSetSize=27
%%%mzn-stat: allDifferentNumber1TotalFixedEdgesAtConflict=0
%%%mzn-stat: allDifferentNumber1TotalVarsInvolvedInPruning=604
%%%mzn-stat: allDifferentNumber1MaxValuesPrunedFromSingleVar=7
%%%mzn-stat: allDifferentNumber1TotalSccSizeAtPruning=748
%%%mzn-stat: allDifferentNumber1NumberOfSccPruningCalls=200
%%%mzn-stat: circuitNumber2PropagationsThatFoundConflict=45
%%%mzn-stat: circuitNumber2TotalFixedEdgesAtConflict=2005
%%%mzn-stat: circuitNumber2NumberOfConflicts=45
%%%mzn-stat: circuitNumber2PropagationsThatPruned=36
%%%mzn-stat: circuitNumber2PropagationsTotal=217
%%%mzn-stat: AverageConflictSize=26.57777777777778
%%%mzn-stat: NumUnitNogoodsLearned=0
%%%mzn-stat: AverageLearnedNogoodLength=22.42222222222222
%%%mzn-stat: AverageBacktrackAmount=0
%%%mzn-stat: AverageLbd=11.311111111111112
%%%mzn-stat: 2AutonomousSearchNumBackupCalled=573
%%%mzn-stat: 2AutonomousSearchNumPredicatesRemoved=0
%%%mzn-stat: 2AutonomousSearchNumCalls=575
%%%mzn-stat: 2AutonomousSearchNumPredicatesAdded=1032
%%%mzn-stat: 2AutonomousSearchAverageSizeOfHeap=1.796521739130435
%%%mzn-stat: 2AutonomousSearchNumAssignedPredicatesEncountered=1033
%%%mzn-stat-end
maxleg = 685;
succ = array1d(1..50,[19, 9, 6, 5, 18, 8, 14, 7, 4, 15, 26, 2, 23, 49, 24, 35, 20, 25, 29, 21, 33, 12, 48, 45, 44, 30, 1, 34, 42, 41, 3, 17, 36, 22, 11, 10, 27, 32, 16, 38, 46, 13, 40, 39, 28, 37, 50, 47, 43, 31]);
% time elapsed: 3.32 s
----------
%%%mzn-stat: initTime=0.006842272
%%%mzn-stat: objective=635
%%%mzn-stat: nodes=1602
%%%mzn-stat: restarts=0
%%%mzn-stat: peakDepth=321
%%%mzn-stat: solveTime=0.152552082
%%%mzn-stat: variables=673
%%%mzn-stat: propagators=454
%%%mzn-stat: failures=389
%%%mzn-stat: propagations=16237
%%%mzn-stat: nogoods=389
%%%mzn-stat: numAtomicConstraintsPropagated=0
%%%mzn-stat: allDifferentNumber1PropagationsTotal=2139
%%%mzn-stat: allDifferentNumber1PropagationsThatFoundConflict=0
%%%mzn-stat: allDifferentNumber1PropagationsThatPruned=1224
%%%mzn-stat: allDifferentNumber1TotalValuesPruned=3572
%%%mzn-stat: allDifferentNumber1TotalHallSetSizeConflict=0
%%%mzn-stat: allDifferentNumber1NumberOfConflicts=0
%%%mzn-stat: allDifferentNumber1MaxHallSetSizeConflict=0
%%%mzn-stat: allDifferentNumber1TotalPruningHallSetSize=8178
%%%mzn-stat: allDifferentNumber1NumberOfPruningExplanations=3572
%%%mzn-stat: allDifferentNumber1MaxPruningHallSetSize=27
%%%mzn-stat: allDifferentNumber1TotalFixedEdgesAtConflict=0
%%%mzn-stat: allDifferentNumber1TotalVarsInvolvedInPruning=2910
%%%mzn-stat: allDifferentNumber1MaxValuesPrunedFromSingleVar=7
%%%mzn-stat: allDifferentNumber1TotalSccSizeAtPruning=3306
%%%mzn-stat: allDifferentNumber1NumberOfSccPruningCalls=1224
%%%mzn-stat: circuitNumber2PropagationsThatFoundConflict=386
%%%mzn-stat: circuitNumber2TotalFixedEdgesAtConflict=17541
%%%mzn-stat: circuitNumber2NumberOfConflicts=386
%%%mzn-stat: circuitNumber2PropagationsThatPruned=301
%%%mzn-stat: circuitNumber2PropagationsTotal=1338
%%%mzn-stat: AverageConflictSize=28.496143958868895
%%%mzn-stat: NumUnitNogoodsLearned=0
%%%mzn-stat: AverageLearnedNogoodLength=23.75578406169666
%%%mzn-stat: AverageBacktrackAmount=0
%%%mzn-stat: AverageLbd=11.598971722365038
%%%mzn-stat: 2AutonomousSearchNumBackupCalled=846
%%%mzn-stat: 2AutonomousSearchNumPredicatesRemoved=0
%%%mzn-stat: 2AutonomousSearchNumCalls=849
%%%mzn-stat: 2AutonomousSearchNumPredicatesAdded=1854
%%%mzn-stat: 2AutonomousSearchAverageSizeOfHeap=2.6018845700824498
%%%mzn-stat: 2AutonomousSearchNumAssignedPredicatesEncountered=2209
%%%mzn-stat-end
maxleg = 635;
succ = array1d(1..50,[19, 9, 6, 5, 18, 8, 14, 7, 4, 15, 26, 2, 23, 49, 34, 35, 20, 25, 29, 21, 33, 12, 48, 10, 44, 30, 1, 17, 42, 41, 3, 36, 24, 22, 11, 45, 27, 32, 16, 38, 46, 13, 40, 39, 28, 37, 50, 47, 43, 31]);
% time elapsed: 3.44 s
----------
%%%mzn-stat: initTime=0.006842272
%%%mzn-stat: objective=437
%%%mzn-stat: nodes=2421
%%%mzn-stat: restarts=0
%%%mzn-stat: peakDepth=321
%%%mzn-stat: solveTime=0.243327599
%%%mzn-stat: variables=673
%%%mzn-stat: propagators=454
%%%mzn-stat: failures=684
%%%mzn-stat: propagations=28628
%%%mzn-stat: nogoods=684
%%%mzn-stat: numAtomicConstraintsPropagated=0
%%%mzn-stat: allDifferentNumber1PropagationsTotal=3976
%%%mzn-stat: allDifferentNumber1PropagationsThatFoundConflict=1
%%%mzn-stat: allDifferentNumber1PropagationsThatPruned=2363
%%%mzn-stat: allDifferentNumber1TotalValuesPruned=6111
%%%mzn-stat: allDifferentNumber1TotalHallSetSizeConflict=4
%%%mzn-stat: allDifferentNumber1NumberOfConflicts=1
%%%mzn-stat: allDifferentNumber1MaxHallSetSizeConflict=4
%%%mzn-stat: allDifferentNumber1TotalPruningHallSetSize=13074
%%%mzn-stat: allDifferentNumber1NumberOfPruningExplanations=6111
%%%mzn-stat: allDifferentNumber1MaxPruningHallSetSize=27
%%%mzn-stat: allDifferentNumber1TotalFixedEdgesAtConflict=31
%%%mzn-stat: allDifferentNumber1TotalVarsInvolvedInPruning=5078
%%%mzn-stat: allDifferentNumber1MaxValuesPrunedFromSingleVar=7
%%%mzn-stat: allDifferentNumber1TotalSccSizeAtPruning=6018
%%%mzn-stat: allDifferentNumber1NumberOfSccPruningCalls=2363
%%%mzn-stat: circuitNumber2PropagationsThatFoundConflict=680
%%%mzn-stat: circuitNumber2TotalFixedEdgesAtConflict=30496
%%%mzn-stat: circuitNumber2NumberOfConflicts=680
%%%mzn-stat: circuitNumber2PropagationsThatPruned=628
%%%mzn-stat: circuitNumber2PropagationsTotal=2483
%%%mzn-stat: AverageConflictSize=25.804093567251464
%%%mzn-stat: NumUnitNogoodsLearned=0
%%%mzn-stat: AverageLearnedNogoodLength=21.12280701754386
%%%mzn-stat: AverageBacktrackAmount=0
%%%mzn-stat: AverageLbd=12.81578947368421
%%%mzn-stat: 2AutonomousSearchNumBackupCalled=1119
%%%mzn-stat: 2AutonomousSearchNumPredicatesRemoved=0
%%%mzn-stat: 2AutonomousSearchNumCalls=1123
%%%mzn-stat: 2AutonomousSearchNumPredicatesAdded=3329
%%%mzn-stat: 2AutonomousSearchAverageSizeOfHeap=3.4933214603739984
%%%mzn-stat: 2AutonomousSearchNumAssignedPredicatesEncountered=3923
%%%mzn-stat-end
maxleg = 437;
succ = array1d(1..50,[19, 9, 6, 5, 18, 8, 14, 7, 4, 15, 26, 2, 42, 33, 24, 34, 20, 25, 48, 21, 36, 12, 13, 32, 44, 30, 1, 10, 22, 35, 3, 38, 17, 37, 16, 45, 27, 40, 46, 43, 11, 29, 49, 39, 28, 41, 50, 47, 23, 31]);
% time elapsed: 3.53 s
----------
%%%mzn-stat: initTime=0.006842272
%%%mzn-stat: objective=437
%%%mzn-stat: nodes=4205624
%%%mzn-stat: restarts=0
%%%mzn-stat: peakDepth=321
%%%mzn-stat: solveTime=1796.656048261
%%%mzn-stat: variables=673
%%%mzn-stat: propagators=454
%%%mzn-stat: failures=2479840
%%%mzn-stat: propagations=103311900
%%%mzn-stat: nogoods=2479840
%%%mzn-stat: numAtomicConstraintsPropagated=0
%%%mzn-stat: allDifferentNumber1PropagationsTotal=13379432
%%%mzn-stat: allDifferentNumber1PropagationsThatFoundConflict=209006
%%%mzn-stat: allDifferentNumber1PropagationsThatPruned=7938533
%%%mzn-stat: allDifferentNumber1TotalValuesPruned=34301973
%%%mzn-stat: allDifferentNumber1TotalHallSetSizeConflict=1584670
%%%mzn-stat: allDifferentNumber1NumberOfConflicts=209006
%%%mzn-stat: allDifferentNumber1MaxHallSetSizeConflict=31
%%%mzn-stat: allDifferentNumber1TotalPruningHallSetSize=155965451
%%%mzn-stat: allDifferentNumber1NumberOfPruningExplanations=34301973
%%%mzn-stat: allDifferentNumber1MaxPruningHallSetSize=37
%%%mzn-stat: allDifferentNumber1TotalFixedEdgesAtConflict=5638035
%%%mzn-stat: allDifferentNumber1TotalVarsInvolvedInPruning=26004556
%%%mzn-stat: allDifferentNumber1MaxValuesPrunedFromSingleVar=9
%%%mzn-stat: allDifferentNumber1TotalSccSizeAtPruning=59665326
%%%mzn-stat: allDifferentNumber1NumberOfSccPruningCalls=7938533
%%%mzn-stat: circuitNumber2PropagationsThatFoundConflict=1931416
%%%mzn-stat: circuitNumber2TotalFixedEdgesAtConflict=80637282
%%%mzn-stat: circuitNumber2NumberOfConflicts=1931416
%%%mzn-stat: circuitNumber2PropagationsThatPruned=1490899
%%%mzn-stat: circuitNumber2PropagationsTotal=7836606
%%%mzn-stat: AverageConflictSize=20.10398251500097
%%%mzn-stat: NumUnitNogoodsLearned=0
%%%mzn-stat: AverageLearnedNogoodLength=27.87424995160978
%%%mzn-stat: AverageBacktrackAmount=0
%%%mzn-stat: AverageLbd=14.128603055035809
%%%mzn-stat: 2AutonomousSearchNumBackupCalled=1119
%%%mzn-stat: 2AutonomousSearchNumPredicatesRemoved=0
%%%mzn-stat: 2AutonomousSearchNumCalls=1123
%%%mzn-stat: 2AutonomousSearchNumPredicatesAdded=6455
%%%mzn-stat: 2AutonomousSearchAverageSizeOfHeap=3.4933214603739984
%%%mzn-stat: 2AutonomousSearchNumAssignedPredicatesEncountered=3923
%%%mzn-stat-end
